NAME : Unnamed.802.tour
COMMENT : Length = 802
COMMENT : Found by LKH [Keld Helsgaun] Tue Jan 13 16:45:16 2015
TYPE : TOUR
DIMENSION : 103
TOUR_SECTION
1
5
103
9
2
3
4
6
59
37
55
23
36
10
21
35
13
17
26
24
71
81
58
51
70
39
11
16
34
28
65
56
41
79
86
52
60
47
42
43
57
68
19
14
33
29
25
18
22
30
15
32
27
12
20
31
54
44
69
73
72
63
77
76
50
40
75
98
102
82
96
92
99
89
78
101
91
87
95
80
83
100
64
66
85
94
88
93
49
38
61
48
67
90
74
46
45
84
97
62
53
7
8
-1
EOF
